sat
(:binary-propagations  149
 :decisions            195
 :del-clause           48
 :final-checks         4
 :max-generation       1
 :max-memory           23.02
 :memory               20.82
 :mk-bool-var          307
 :mk-clause            84
 :mk-clause-binary     208
 :num-allocs           4785008
 :num-checks           1
 :propagations         185
 :quant-instantiations 49
 :restarts             3
 :rlimit-count         53777
 :time                 0.02)
